0 0 0 0
0 1 0 0
0 2 1 0
0 3 0 0
0 4 0 2
0 5 0 4
0 6 0 5
0 7 2 5
0 8 2 3
0 9 1 9
0 10 0 9
0 11 0 16
0 12 0 3
0 13 0 10
0 14 0 11
0 15 0 4
0 16 1 2
0 17 0 5
0 18 0 9
0 19 1 6
0 20 0 11
0 21 2 14
0 22 0 16
0 23 0 24
0 24 0 16
0 25 0 13
0 26 0 16
0 27 0 24
0 28 0 26
0 29 0 26
0 30 0 19
0 31 0 30
